* ENCODING=ISO-8859-1
NAME          CPLEX
ROWS
 N  obj1    
 G  c1      
 G  c2      
 G  c3      
 G  c4      
 G  c5      
 G  c6      
 G  c7      
 G  c8      
 G  c9      
 G  c10     
 G  c11     
 G  c12     
 G  c13     
 G  c14     
 G  c15     
 G  c16     
 G  c17     
 G  c18     
 G  c19     
 G  c20     
 G  c21     
 G  c22     
 G  c23     
 G  c24     
 G  c25     
 G  c26     
 G  c27     
 G  c28     
 G  c29     
 G  c30     
 G  c31     
 G  c32     
 G  c33     
 G  c34     
 G  c35     
COLUMNS
    MARK0000  'MARKER'                 'INTORG'
    x1        obj1                            1
    x1        c1                            457
    x1        c9                            286
    x1        c10                           696
    x1        c16                           253
    x1        c17                           176
    x1        c28                           748
    x2        obj1                            1
    x2        c10                           235
    x2        c11                           136
    x2        c22                           467
    x2        c30                           561
    x3        obj1                            1
    x3        c3                            167
    x3        c10                           616
    x3        c12                           470
    x3        c24                           627
    x3        c28                           319
    x3        c30                           710
    x3        c31                           281
    x4        obj1                            1
    x4        c8                            226
    x4        c12                           288
    x4        c28                           106
    x4        c29                           466
    x5        obj1                            1
    x5        c35                          1000
    x6        obj1                            1
    x6        c15                           456
    x6        c21                           936
    x6        c23                           360
    x7        obj1                            1
    x7        c8                            482
    x7        c22                           325
    x7        c23                           862
    x7        c24                           249
    x7        c35                           546
    x8        obj1                            1
    x8        c1                            355
    x8        c24                           177
    x9        obj1                            1
    x9        c1                            518
    x9        c4                            249
    x9        c13                           110
    x9        c18                           180
    x9        c25                           783
    x9        c35                           765
    x10       obj1                            1
    x10       c1                            640
    x10       c2                            641
    x10       c6                            586
    x11       obj1                            1
    x11       c33                           856
    x12       obj1                            1
    x12       c3                            413
    x12       c6                            686
    x12       c9                            675
    x12       c12                           771
    x12       c16                           204
    x12       c32                           435
    x12       c34                           535
    x13       obj1                            1
    x13       c18                           254
    x13       c30                           295
    x13       c33                           172
    x14       obj1                            1
    x14       c8                            307
    x14       c9                            260
    x14       c18                           312
    x14       c25                           810
    x14       c28                           883
    x14       c35                           307
    x15       obj1                            1
    x15       c11                           672
    x15       c20                           208
    x15       c22                           885
    x15       c35                           426
    x16       obj1                            1
    x16       c1                            721
    x16       c5                            422
    x16       c23                           887
    x16       c32                           285
    x17       obj1                            1
    x17       c4                            230
    x17       c13                           903
    x17       c17                           375
    x17       c22                           480
    x17       c31                           274
    x18       obj1                            1
    x18       c2                            240
    x18       c9                            175
    x19       obj1                            1
    x19       c4                            176
    x19       c32                           606
    x19       c34                           122
    x20       obj1                            1
    x21       obj1                            1
    x21       c15                           962
    x21       c18                           298
    x21       c20                           307
    x21       c23                           883
    x21       c29                           491
    x21       c35                           517
    x22       obj1                            1
    x22       c14                           572
    x22       c28                           732
    x22       c30                           874
    x23       obj1                            1
    x23       c3                            200
    x23       c19                           684
    x23       c21                           949
    x23       c27                           943
    x23       c31                           482
    x23       c34                           600
    x24       obj1                            1
    x24       c9                            130
    x24       c14                           761
    x24       c18                           625
    x25       obj1                            1
    x25       c3                            275
    x25       c6                            715
    x25       c21                           447
    x25       c25                           280
    x25       c31                           381
    x26       obj1                            1
    x26       c1                            367
    x26       c14                           907
    x26       c29                           976
    x27       obj1                            1
    x27       c10                           810
    x27       c11                           333
    x27       c18                           669
    x27       c22                           895
    x27       c32                           215
    x28       obj1                            1
    x28       c27                           862
    x29       obj1                            1
    x29       c20                           690
    x29       c23                           447
    x30       obj1                            1
    x30       c15                           346
    x30       c21                           819
    x30       c28                           284
    x31       obj1                            1
    x31       c24                           444
    x32       obj1                            1
    x32       c26                           361
    x33       obj1                            1
    x33       c14                           453
    x34       obj1                            1
    x34       c6                            850
    x34       c35                           107
    x35       obj1                            1
    x35       c4                            124
    x35       c14                           461
    x35       c18                           673
    x35       c21                           175
    x35       c25                           292
    x36       obj1                            1
    x36       c2                            780
    x36       c4                            520
    x36       c9                            203
    x36       c16                           968
    x36       c19                           384
    x37       obj1                            1
    x37       c3                            840
    x37       c5                            832
    x38       obj1                            1
    x38       c26                           890
    x39       obj1                            1
    x39       c4                            873
    x39       c25                          1000
    x39       c28                           696
    x40       obj1                            1
    x40       c6                            419
    x40       c16                           409
    x40       c19                           629
    x40       c21                           733
    x41       obj1                            1
    x41       c3                            882
    x41       c5                            561
    x41       c10                           893
    x41       c16                           889
    x41       c29                           317
    x42       obj1                            1
    x42       c1                            995
    x42       c6                            503
    x42       c14                           456
    x43       obj1                            1
    x43       c1                            294
    x43       c4                            520
    x43       c20                           160
    x43       c34                           285
    x44       obj1                            1
    x44       c9                            505
    x44       c13                           903
    x45       obj1                            1
    x45       c3                            101
    x45       c6                            130
    x45       c14                           741
    x45       c33                           596
    x45       c34                           447
    x46       obj1                            1
    x46       c2                            420
    x46       c20                           115
    x46       c28                           344
    x47       obj1                            1
    x47       c27                           867
    x48       obj1                            1
    x48       c2                            719
    x48       c3                            759
    x48       c7                            623
    x48       c12                           890
    x48       c19                           381
    x48       c30                           185
    x48       c31                           215
    x49       obj1                            1
    x49       c10                           253
    x49       c14                           170
    x49       c15                           524
    x49       c27                           199
    x49       c35                           892
    x50       obj1                            1
    x50       c10                           894
    x50       c11                           105
    x50       c23                           555
    x51       obj1                            1
    x51       c20                           154
    x51       c22                           930
    x51       c30                           356
    x51       c34                           240
    x52       obj1                            1
    x52       c2                            306
    x52       c4                            607
    x52       c9                            631
    x52       c17                           968
    x52       c18                           950
    x52       c26                           437
    x52       c27                           335
    x53       obj1                            1
    x53       c3                            411
    x53       c27                           198
    x54       obj1                            1
    x54       c6                            552
    x54       c21                           718
    x54       c30                           390
    x55       obj1                            1
    x55       c4                            506
    x55       c7                            999
    x55       c9                            135
    x55       c24                           240
    x55       c35                           515
    x56       obj1                            1
    x56       c29                           769
    x57       obj1                            1
    x57       c8                            955
    x57       c10                           411
    x58       obj1                            1
    x58       c5                            266
    x58       c23                           464
    x59       obj1                            1
    x59       c17                           656
    x59       c24                           248
    x60       obj1                            1
    x60       c1                            521
    x60       c7                            228
    x60       c15                           621
    x60       c25                           834
    x61       obj1                            1
    x61       c8                            447
    x61       c13                           758
    x61       c14                           963
    x62       obj1                            1
    x62       c2                            524
    x62       c10                           957
    x62       c17                           164
    x62       c20                           333
    x62       c24                           161
    x62       c30                           894
    x63       obj1                            1
    x63       c7                            611
    x63       c16                           157
    x63       c26                           793
    x63       c27                           212
    x64       obj1                            1
    x64       c4                            849
    x64       c14                           181
    x64       c16                           985
    x64       c34                           219
    x65       obj1                            1
    x65       c1                            855
    x65       c5                            886
    x65       c22                           688
    x65       c29                           480
    x65       c35                           810
    x66       obj1                            1
    x66       c12                           219
    x67       obj1                            1
    x67       c9                            895
    x67       c15                           999
    x67       c21                           819
    x67       c23                           172
    x67       c28                           280
    x67       c33                           641
    x68       obj1                            1
    x68       c18                           670
    x69       obj1                            1
    x69       c13                           891
    x69       c15                           854
    x69       c16                           843
    x69       c21                           699
    x69       c24                           704
    x69       c30                           443
    x70       obj1                            1
    x70       c2                            221
    x70       c13                           319
    x70       c18                           745
    x70       c29                           105
    MARK0001  'MARKER'                 'INTEND'
RHS
    rhs       c1                           2862
    rhs       c2                           1926
    rhs       c3                           2024
    rhs       c4                           2327
    rhs       c5                           1484
    rhs       c6                           2221
    rhs       c7                           1231
    rhs       c8                           1209
    rhs       c9                           1948
    rhs       c10                          2883
    rhs       c11                           623
    rhs       c12                          1319
    rhs       c13                          1942
    rhs       c14                          2833
    rhs       c15                          2381
    rhs       c16                          2354
    rhs       c17                          1170
    rhs       c18                          2688
    rhs       c19                          1039
    rhs       c20                           984
    rhs       c21                          3148
    rhs       c22                          2335
    rhs       c23                          2315
    rhs       c24                          1425
    rhs       c25                          2000
    rhs       c26                          1241
    rhs       c27                          1808
    rhs       c28                          2196
    rhs       c29                          1802
    rhs       c30                          2354
    rhs       c31                           817
    rhs       c32                           771
    rhs       c33                          1133
    rhs       c34                          1224
    rhs       c35                          2943
BOUNDS
 LI bnd       x1        0
 LI bnd       x2        0
 LI bnd       x3        0
 LI bnd       x4        0
 LI bnd       x5        0
 LI bnd       x6        0
 LI bnd       x7        0
 LI bnd       x8        0
 LI bnd       x9        0
 LI bnd       x10       0
 LI bnd       x11       0
 LI bnd       x12       0
 LI bnd       x13       0
 LI bnd       x14       0
 LI bnd       x15       0
 LI bnd       x16       0
 LI bnd       x17       0
 LI bnd       x18       0
 LI bnd       x19       0
 LI bnd       x20       0
 LI bnd       x21       0
 LI bnd       x22       0
 LI bnd       x23       0
 LI bnd       x24       0
 LI bnd       x25       0
 LI bnd       x26       0
 LI bnd       x27       0
 LI bnd       x28       0
 LI bnd       x29       0
 LI bnd       x30       0
 LI bnd       x31       0
 LI bnd       x32       0
 LI bnd       x33       0
 LI bnd       x34       0
 LI bnd       x35       0
 LI bnd       x36       0
 LI bnd       x37       0
 LI bnd       x38       0
 LI bnd       x39       0
 LI bnd       x40       0
 LI bnd       x41       0
 LI bnd       x42       0
 LI bnd       x43       0
 LI bnd       x44       0
 LI bnd       x45       0
 LI bnd       x46       0
 LI bnd       x47       0
 LI bnd       x48       0
 LI bnd       x49       0
 LI bnd       x50       0
 LI bnd       x51       0
 LI bnd       x52       0
 LI bnd       x53       0
 LI bnd       x54       0
 LI bnd       x55       0
 LI bnd       x56       0
 LI bnd       x57       0
 LI bnd       x58       0
 LI bnd       x59       0
 LI bnd       x60       0
 LI bnd       x61       0
 LI bnd       x62       0
 LI bnd       x63       0
 LI bnd       x64       0
 LI bnd       x65       0
 LI bnd       x66       0
 LI bnd       x67       0
 LI bnd       x68       0
 LI bnd       x69       0
 LI bnd       x70       0
ENDATA
